NAME : instances/clustered-mixed-tsp/instance-13.tsp
COMMENT : No Comment
TYPE : TSP
DIMENSION: 40
EDGE_WEIGHT_TYPE : EUC_2D
NODE_COORD_SECTION
1 977 5298 
2 697 5104 
3 567 5253 
4 1105 4768 
5 856 4837 
6 803 5182 
7 627 4992 
8 736 4650 
9 897 4884 
10 1162 5200 
11 962 4747 
12 627 5199 
13 667 4642 
14 1121 4645 
15 1092 5247 
16 817 4983 
17 946 5256 
18 579 4858 
19 1083 4831 
20 1127 5129 
21 661 4634 
22 975 5175 
23 651 5055 
24 869 4684 
25 1120 5170 
26 1178 4956 
27 920 4899 
28 838 4695 
29 775 5244 
30 606 4787 
31 1205 5063 
32 1176 5215 
33 1014 5059 
34 563 5075 
35 1214 5277 
36 682 5106 
37 629 4963 
38 689 5109 
39 857 4930 
40 923 5154 
EOF
